data/instances/vrp_files/train_45.vrp
NAME : 45
COMMENT : Generated instance No. 45
TYPE : CVRP
DIMENSION : 21
EDGE_WEIGHT_TYPE : EUC_2D
CAPACITY : 30
NODE_COORD_SECTION
 1 781 644
 2 748 317
 3 0 511
 4 46 276
 5 706 62
 6 839 3
 7 246 740
 8 316 101
 9 360 270
 10 842 313
 11 788 891
 12 433 909
 13 377 964
 14 89 687
 15 493 387
 16 632 703
 17 4 166
 18 713 666
 19 966 761
 20 950 702
 21 298 105
DEMAND_SECTION
1 0
2 10
3 1
4 5
5 6
6 7
7 9
8 3
9 2
10 3
11 9
12 7
13 9
14 2
15 5
16 4
17 2
18 9
19 9
20 6
21 6
DEPOT_SECTION
 1
 -1
EOF